
%FILE DATA:	Soccer Computational Problem for MiniZinc Models	%
%AUTHOR:	Jack Wall	%
%CONTACT:  	116397063@umail.ucc.ie			%
%LAST UPDATE:	02/27/2020, 19:27:34						%
%DESCRIPTION: 	77 games played with 33 games left				%


n=11; %number of teams

%Games to play
games=[|5,1|3,10|6,1|9,1|5,6|8,10|1,4|10,7|9,7|2,3|1,2|9,5|1,5|8,11|8,3|8,1|10,1|3,9|3,7|10,3|7,11|2,5|4,8|1,10|5,3|10,4|7,3|8,9|2,6|2,8|10,2|7,8|1,6|];

%Initial points
iPoints=[16,24,20,17,23,13,21,13,19,14,27];

%POSITION CONSTRAINTS
% [|teamID, operator, position|...]
% operators index:
%  1 for =  operator
%  2 for >  operator
%  3 for >= operator
%  4 for <  operator
%  5 for <= operator
positionConstraints=[|5,3,1|2,5,2|];